
%FILE DATA:	Soccer Computational Problem for MiniZinc Models	%
%AUTHOR:	Jack Wall	%
%CONTACT:  	116397063@umail.ucc.ie			%
%LAST UPDATE:	03/03/2020, 16:21:28						%
%DESCRIPTION: 	80 games played with 10 games left				%


n=10; %number of teams

%Games to play
games=[|2,6|10,1|7,8|2,3|8,7|6,10|6,4|5,7|1,3|4,7|];

%Initial points
iPoints=[31,22,22,17,27,16,17,25,19,19];

%POSITION CONSTRAINTS
% [|teamID, operator, position|...]
% operators index:
%  1 for =  operator
%  2 for >  operator
%  3 for >= operator
%  4 for <  operator
%  5 for <= operator
positionConstraints=[|1,5,1|5,4,3|3,4,4|8,3,4|];